50	
3064	
3766	
528	448
1056	896
660	560
528	448
309	249
721	581
206	166
721	581
515	415
264	224
132	112
412	332
103	83
721	581
515	415
412	332
528	448
1188	1008
103	83
515	415
132	112
1030	830
927	747
309	249
1056	896
528	448
924	784
660	560
618	498
618	498
264	224
618	498
309	249
103	83
1056	896
792	672
309	249
1320	1120
1188	1008
264	224
1188	1008
1320	1120
792	672
412	332
1188	1008
1188	1008
264	224
515	415
396	336
528	448